23
OpenTrader codebase molecule
N    -0.278   -0.116    0.064 harness.py
F    -0.023   -0.102   -0.038 mcp_server.py
F    -0.838    0.171   -0.589 dashboard.py
F     0.206   -0.745   -0.588 tui_dashboard.py
O    -0.125    0.075   -0.047 mot
S    -0.033   -0.022    0.171 exchange
S    -0.132   -0.173    0.291 risk
P    -0.384    0.128    0.016 setup_search
P    -0.216   -0.258   -0.029 training
C    -0.248   -0.028    0.184 data
C    -0.060   -0.247    0.137 state
O    -0.423   -0.305    0.067 agent
F     0.145    0.012   -0.193 tools
F    -0.132   -0.097   -0.389 charts
F     0.656    0.334   -0.583 scripts
P     0.250    0.408    0.855 coordinator.py
C     0.487   -0.472    0.711 connections.py
P    -0.538   -0.055    0.390 model_manager.py
S     0.021   -0.005   -1.000 onchain.py
F    -0.094    0.262    0.358 gpu_sync.py
F     0.869   -0.162    0.216 run_harness.py
F     0.005    0.381   -0.155 tests
C     0.597    0.776   -0.030 data_mgmt.py
